Route #1: 55 88 73 103 112 35 28 12 57 2 25 38 36 93 7 41 63 113 72 97 108
Route #2: 51 53 39 30 81 17 94 85 95 11 120 62 117 21
Route #3: 56 71 40 79 9 54 82 70 69 61 96 5 23 60 101 78 58 91 115 4 46
Route #4: 32 26 31 119 24 15 59 84 29 8 107 111 75 66 87 49 116 37 34 68 74
Route #5: 80 16 20 98 47 67 109 118 27 6 48 102 106 105 64 52 90 86 42 83 110
Route #6: 50 43 44 77 114 65 99 14 104 18 76 19 45 10 100 3 13 22 92 33 89
Cost 19541
